p tw 247 497
1 101
1 102
1 189
1 190
1 245
1 246
2 14
2 117
2 118
2 193
3 63
3 64
3 205
3 206
4 112
4 113
4 159
4 160
4 206
4 207
5 64
5 65
5 160
5 161
5 207
5 208
6 90
6 91
6 168
6 169
6 217
6 218
7 96
7 97
7 193
7 234
7 235
8 62
8 63
8 158
8 159
8 204
8 205
9 119
9 120
9 173
9 174
9 223
9 224
10 121
10 122
10 226
10 227
11 50
11 124
11 125
11 192
11 231
11 232
12 133
12 134
12 203
12 204
13 92
13 93
13 175
13 176
13 225
13 226
14 136
14 137
14 193
15 88
15 89
15 162
15 163
15 210
15 211
16 78
16 79
16 183
16 184
16 238
16 239
17 22
17 103
17 104
17 190
17 247
18 129
18 130
18 182
18 183
18 239
18 240
19 150
19 151
19 240
19 241
20 109
20 110
20 154
20 155
20 197
20 198
21 110
21 111
21 156
21 157
21 199
21 200
22 105
22 106
22 190
22 247
23 126
23 127
23 233
23 234
24 68
24 69
24 165
24 166
24 212
24 213
25 140
25 141
25 213
25 214
26 86
26 87
26 201
26 202
27 59
27 152
27 194
28 80
28 81
28 186
28 187
28 243
28 244
29 84
29 85
29 157
29 158
29 200
29 201
30 122
30 123
30 177
30 178
30 228
30 229
31 60
31 61
31 153
31 154
31 196
31 197
32 70
32 71
32 172
32 173
32 221
32 222
33 71
33 72
33 222
33 223
34 59
34 60
34 152
34 153
34 195
34 196
35 73
35 74
35 174
35 175
35 224
35 225
36 100
36 101
36 187
36 188
36 244
36 245
37 98
37 99
37 184
37 185
37 241
37 242
38 116
38 117
38 170
38 171
38 219
38 220
39 75
39 76
39 179
39 180
39 229
39 230
40 77
40 78
40 235
40 236
41 141
41 142
41 166
41 167
41 215
41 216
42 131
42 132
42 185
42 186
42 191
42 192
42 242
42 243
43 114
43 115
43 161
43 162
43 208
43 209
44 151
44 188
44 189
44 246
44 247
45 66
45 67
45 163
45 164
45 209
45 210
46 107
46 108
46 194
46 195
47 142
47 143
47 167
47 168
47 216
47 217
48 137
48 138
48 164
48 165
48 211
48 212
49 144
49 145
49 171
49 172
49 220
49 221
50 134
50 135
50 192
50 202
50 203
51 95
51 96
51 232
51 233
52 82
52 83
52 155
52 156
52 198
52 199
53 139
53 140
53 214
53 215
54 143
54 144
54 169
54 170
54 218
54 219
55 127
55 128
55 180
55 181
55 236
55 237
56 146
56 147
56 178
56 179
56 230
56 231
57 94
57 95
57 176
57 177
57 227
57 228
58 148
58 149
58 181
58 182
58 191
58 237
58 238
59 60
60 61
61 62
62 63
63 64
64 65
65 66
66 67
67 68
68 69
69 70
70 71
71 72
72 73
73 74
74 75
75 76
76 77
77 78
78 79
79 80
80 81
81 82
82 83
83 84
84 85
85 86
86 87
87 88
88 89
89 90
90 91
91 92
92 93
93 94
94 95
95 96
96 97
97 98
98 99
99 100
100 101
101 102
102 103
103 104
104 105
105 106
106 107
107 108
108 109
109 110
110 111
111 112
112 113
113 114
114 115
115 116
116 117
117 118
118 119
119 120
120 121
121 122
122 123
123 124
124 125
125 126
126 127
127 128
128 129
129 130
130 131
131 132
132 133
133 134
134 135
135 136
136 137
137 138
138 139
139 140
140 141
141 142
142 143
143 144
144 145
145 146
146 147
147 148
148 149
149 150
150 151
152 153
153 154
154 155
155 156
156 157
157 158
158 159
159 160
160 161
161 162
162 163
163 164
164 165
165 166
166 167
167 168
168 169
169 170
170 171
171 172
172 173
173 174
174 175
175 176
176 177
177 178
178 179
179 180
180 181
181 182
182 183
183 184
184 185
185 186
186 187
187 188
188 189
189 190
191 192
194 195
195 196
196 197
197 198
198 199
199 200
200 201
201 202
202 203
203 204
204 205
205 206
206 207
207 208
208 209
209 210
210 211
211 212
212 213
213 214
214 215
215 216
216 217
217 218
218 219
219 220
220 221
221 222
222 223
223 224
224 225
225 226
226 227
227 228
228 229
229 230
230 231
231 232
232 233
233 234
234 235
235 236
236 237
237 238
238 239
239 240
240 241
241 242
242 243
243 244
244 245
245 246
246 247
